NAME: R211
COMMENT: converted from Solomon txt
TYPE: VRPTW
VEHICLES: 25
DIMENSION: 101
CAPACITY: 1000
EDGE_WEIGHT_TYPE: EUC_2D
NODE_COORD_SECTION
1	35.0	35.0
2	41.0	49.0
3	35.0	17.0
4	55.0	45.0
5	55.0	20.0
6	15.0	30.0
7	25.0	30.0
8	20.0	50.0
9	10.0	43.0
10	55.0	60.0
11	30.0	60.0
12	20.0	65.0
13	50.0	35.0
14	30.0	25.0
15	15.0	10.0
16	30.0	5.0
17	10.0	20.0
18	5.0	30.0
19	20.0	40.0
20	15.0	60.0
21	45.0	65.0
22	45.0	20.0
23	45.0	10.0
24	55.0	5.0
25	65.0	35.0
26	65.0	20.0
27	45.0	30.0
28	35.0	40.0
29	41.0	37.0
30	64.0	42.0
31	40.0	60.0
32	31.0	52.0
33	35.0	69.0
34	53.0	52.0
35	65.0	55.0
36	63.0	65.0
37	2.0	60.0
38	20.0	20.0
39	5.0	5.0
40	60.0	12.0
41	40.0	25.0
42	42.0	7.0
43	24.0	12.0
44	23.0	3.0
45	11.0	14.0
46	6.0	38.0
47	2.0	48.0
48	8.0	56.0
49	13.0	52.0
50	6.0	68.0
51	47.0	47.0
52	49.0	58.0
53	27.0	43.0
54	37.0	31.0
55	57.0	29.0
56	63.0	23.0
57	53.0	12.0
58	32.0	12.0
59	36.0	26.0
60	21.0	24.0
61	17.0	34.0
62	12.0	24.0
63	24.0	58.0
64	27.0	69.0
65	15.0	77.0
66	62.0	77.0
67	49.0	73.0
68	67.0	5.0
69	56.0	39.0
70	37.0	47.0
71	37.0	56.0
72	57.0	68.0
73	47.0	16.0
74	44.0	17.0
75	46.0	13.0
76	49.0	11.0
77	49.0	42.0
78	53.0	43.0
79	61.0	52.0
80	57.0	48.0
81	56.0	37.0
82	55.0	54.0
83	15.0	47.0
84	14.0	37.0
85	11.0	31.0
86	16.0	22.0
87	4.0	18.0
88	28.0	18.0
89	26.0	52.0
90	26.0	35.0
91	31.0	67.0
92	15.0	19.0
93	22.0	22.0
94	18.0	24.0
95	26.0	27.0
96	25.0	24.0
97	22.0	27.0
98	25.0	21.0
99	19.0	21.0
100	20.0	26.0
101	18.0	18.0
DEMAND_SECTION
1	0
2	10
3	7
4	13
5	19
6	26
7	3
8	5
9	9
10	16
11	16
12	12
13	19
14	23
15	20
16	8
17	19
18	2
19	12
20	17
21	9
22	11
23	18
24	29
25	3
26	6
27	17
28	16
29	16
30	9
31	21
32	27
33	23
34	11
35	14
36	8
37	5
38	8
39	16
40	31
41	9
42	5
43	5
44	7
45	18
46	16
47	1
48	27
49	36
50	30
51	13
52	10
53	9
54	14
55	18
56	2
57	6
58	7
59	18
60	28
61	3
62	13
63	19
64	10
65	9
66	20
67	25
68	25
69	36
70	6
71	5
72	15
73	25
74	9
75	8
76	18
77	13
78	14
79	3
80	23
81	6
82	26
83	16
84	11
85	7
86	41
87	35
88	26
89	9
90	15
91	3
92	1
93	2
94	22
95	27
96	20
97	11
98	12
99	10
100	9
101	17
DEPOT_SECTION
1
TIME_WINDOW_SECTION
1	0.0	1000.0
2	451.0	974.0
3	18.0	534.0
4	378.0	733.0
5	477.0	965.0
6	20.0	610.0
7	245.0	684.0
8	172.0	569.0
9	245.0	640.0
10	231.0	666.0
11	430.0	779.0
12	33.0	511.0
13	50.0	523.0
14	462.0	978.0
15	32.0	694.0
16	30.0	519.0
17	102.0	543.0
18	444.0	959.0
19	229.0	582.0
20	95.0	552.0
21	418.0	829.0
22	36.0	509.0
23	246.0	657.0
24	36.0	514.0
25	435.0	960.0
26	438.0	956.0
27	428.0	827.0
28	5.0	548.0
29	6.0	526.0
30	29.0	513.0
31	91.0	522.0
32	17.0	501.0
33	482.0	955.0
34	24.0	575.0
35	367.0	776.0
36	453.0	948.0
37	41.0	615.0
38	443.0	856.0
39	130.0	577.0
40	33.0	655.0
41	201.0	596.0
42	219.0	688.0
43	25.0	560.0
44	458.0	867.0
45	59.0	514.0
46	29.0	589.0
47	338.0	805.0
48	34.0	602.0
49	454.0	962.0
50	362.0	679.0
51	379.0	810.0
52	176.0	625.0
53	11.0	502.0
54	256.0	647.0
55	475.0	900.0
56	441.0	918.0
57	412.0	865.0
58	246.0	705.0
59	479.0	980.0
60	17.0	681.0
61	449.0	971.0
62	126.0	541.0
63	25.0	544.0
64	34.0	588.0
65	46.0	524.0
66	49.0	568.0
67	421.0	864.0
68	120.0	575.0
69	459.0	930.0
70	12.0	513.0
71	368.0	968.0
72	98.0	537.0
73	22.0	617.0
74	143.0	564.0
75	482.0	965.0
76	62.0	519.0
77	129.0	534.0
78	460.0	970.0
79	207.0	676.0
80	230.0	623.0
81	470.0	968.0
82	268.0	599.0
83	23.0	515.0
84	21.0	568.0
85	278.0	669.0
86	213.0	624.0
87	230.0	623.0
88	287.0	580.0
89	104.0	563.0
90	409.0	981.0
91	225.0	654.0
92	469.0	964.0
93	18.0	585.0
94	414.0	969.0
95	283.0	656.0
96	14.0	533.0
97	445.0	852.0
98	462.0	823.0
99	21.0	506.0
100	164.0	601.0
101	391.0	965.0
SERVICE_TIME_SECTION
1	0.0
2	10.0
3	10.0
4	10.0
5	10.0
6	10.0
7	10.0
8	10.0
9	10.0
10	10.0
11	10.0
12	10.0
13	10.0
14	10.0
15	10.0
16	10.0
17	10.0
18	10.0
19	10.0
20	10.0
21	10.0
22	10.0
23	10.0
24	10.0
25	10.0
26	10.0
27	10.0
28	10.0
29	10.0
30	10.0
31	10.0
32	10.0
33	10.0
34	10.0
35	10.0
36	10.0
37	10.0
38	10.0
39	10.0
40	10.0
41	10.0
42	10.0
43	10.0
44	10.0
45	10.0
46	10.0
47	10.0
48	10.0
49	10.0
50	10.0
51	10.0
52	10.0
53	10.0
54	10.0
55	10.0
56	10.0
57	10.0
58	10.0
59	10.0
60	10.0
61	10.0
62	10.0
63	10.0
64	10.0
65	10.0
66	10.0
67	10.0
68	10.0
69	10.0
70	10.0
71	10.0
72	10.0
73	10.0
74	10.0
75	10.0
76	10.0
77	10.0
78	10.0
79	10.0
80	10.0
81	10.0
82	10.0
83	10.0
84	10.0
85	10.0
86	10.0
87	10.0
88	10.0
89	10.0
90	10.0
91	10.0
92	10.0
93	10.0
94	10.0
95	10.0
96	10.0
97	10.0
98	10.0
99	10.0
100	10.0
101	10.0
EOF
